p cnf 15 10
-16 19 -18 -10 0
-3 -14 -12 -8 -6 -19 -2 0
-14 -12 -8 -6 -4 -19 -1 0
-13 -12 -8 -6 -4 -19 -2 0
-3 -14 -12 -8 -5 -19 -2 0
-14 -12 -8 -6 -4 -19 -2 0
-13 -12 -7 -6 -4 -19 -2 0
-3 -14 -12 -7 -5 -19 -2 0
-3 -14 -12 -7 -6 -19 -2 0
-14 -7 -6 -4 -19 -2 0
